3
20
4679
[[687, 27, 38,799,270, 18,143,930,708,328,352,160,898,781,592,357,832,327,904,909],
 [313,973,962,201,730,982,857, 70,292,672,648,840,102,219,408,643,168,673, 96, 91],
 [  7, 23, 70, 67, 61, 70, 79, 28, 53, 39, 93, 73, 19, 83, 97, 85, 40, 43, 12, 26]]
[957,197,574,254,632,710,563,282,741,344,752, 37,379,632, 55,364,553,604,434,295]